184 5
10 10 10 10 10 

0 0 0 0 0 0 1 2 
0 0 0 0 0 0 5 3 6 10 11 12 
7 0 0 2 0 0 1 4 
6 0 0 3 0 0 2 9 5 
9 0 0 9 0 0 1 7 
7 0 0 6 0 0 1 7 
9 0 0 8 0 0 1 8 
10 0 0 10 0 0 1 13 
1 0 0 10 0 0 1 13 
1 0 0 7 0 0 1 13 
2 0 0 10 0 0 1 13 
7 0 0 10 0 0 1 13 
0 0 0 0 0 0 1 14 
0 0 0 0 0 0 3 15 16 17 
4 0 0 0 0 3 3 24 19 18 
8 0 0 0 0 5 3 24 19 18 
6 0 0 0 0 10 2 24 18 
2 0 0 0 0 9 2 22 20 
5 0 0 0 0 7 1 20 
6 0 0 0 0 5 1 21 
9 0 0 0 0 6 1 23 
8 0 0 0 0 10 1 23 
2 0 0 0 0 10 1 25 
1 0 0 0 0 10 1 25 
0 0 0 0 0 0 3 26 38 50 
0 0 0 0 0 0 4 27 30 32 36 
6 0 0 0 2 0 1 28 
2 0 0 0 8 0 1 29 
5 0 0 0 10 0 3 35 34 31 
10 0 0 0 4 0 2 34 33 
3 0 0 0 10 0 1 33 
9 0 0 0 10 0 1 33 
3 0 0 0 10 0 2 37 79 
8 0 0 0 5 0 1 37 
4 0 0 0 10 0 1 37 
6 0 0 0 6 0 1 37 
0 0 0 0 0 0 1 62 
0 0 0 0 0 0 3 39 40 41 
1 4 0 0 0 0 3 44 43 42 
7 10 0 0 0 0 3 44 43 42 
2 4 0 0 0 0 2 43 42 
7 10 0 0 0 0 2 48 45 
9 10 0 0 0 0 3 48 45 85 
6 10 0 0 0 0 2 48 45 
2 6 0 0 0 0 1 46 
1 5 0 0 0 0 1 47 
10 10 0 0 0 0 1 49 
10 6 0 0 0 0 1 49 
0 0 0 0 0 0 1 62 
0 0 0 0 0 0 3 51 52 54 
8 0 0 2 0 0 3 59 56 53 
4 0 0 9 0 0 2 59 53 
2 0 0 7 0 0 2 60 55 
2 0 0 7 0 0 3 59 56 153 
9 0 0 10 0 0 1 57 
6 0 0 6 0 0 1 57 
9 0 0 10 0 0 1 58 
9 0 0 10 0 0 1 61 
6 0 0 9 0 0 1 61 
4 0 0 5 0 0 1 61 
0 0 0 0 0 0 1 62 
0 0 0 0 0 0 5 63 75 87 99 111 
0 0 0 0 0 0 3 64 67 73 
4 0 0 0 0 5 1 65 
5 0 0 0 0 7 2 69 66 
4 0 0 0 0 5 2 72 68 
3 0 0 0 0 7 2 70 102 
1 0 0 0 0 10 1 71 
8 0 0 0 0 9 1 71 
2 0 0 0 0 4 1 71 
10 0 0 0 0 9 1 74 
9 0 0 0 0 9 1 74 
5 0 0 0 0 10 1 74 
0 0 0 0 0 0 1 123 
0 0 0 0 0 0 4 76 79 80 82 
4 2 0 0 0 0 2 85 77 
2 9 0 0 0 0 1 78 
7 5 0 0 0 0 2 84 81 
4 10 0 0 0 0 3 85 84 133 
6 6 0 0 0 0 1 81 
8 10 0 0 0 0 1 83 
7 10 0 0 0 0 1 83 
5 7 0 0 0 0 1 86 
2 9 0 0 0 0 1 86 
9 7 0 0 0 0 1 86 
0 0 0 0 0 0 1 123 
0 0 0 0 0 0 2 88 89 
9 0 0 0 3 0 2 93 91 
4 0 0 0 10 0 1 90 
1 0 0 0 9 0 1 91 
3 0 0 0 6 0 2 94 92 
3 0 0 0 10 0 3 97 96 95 
2 0 0 0 6 0 2 96 94 
8 0 0 0 9 0 1 95 
9 0 0 0 9 0 1 98 
6 0 0 0 7 0 2 98 130 
6 0 0 0 6 0 1 98 
0 0 0 0 0 0 1 123 
0 0 0 0 0 0 4 100 101 102 104 
10 0 0 5 0 0 2 106 103 
8 0 0 8 0 0 2 106 103 
5 0 0 3 0 0 1 103 
7 0 0 9 0 0 1 105 
4 0 0 10 0 0 1 106 
1 0 0 6 0 0 2 108 107 
7 0 0 9 0 0 3 108 107 131 
10 0 0 7 0 0 1 109 
10 0 0 8 0 0 1 109 
8 0 0 10 0 0 1 110 
0 0 0 0 0 0 1 123 
0 0 0 0 0 0 2 112 114 
2 0 0 0 0 2 3 115 113 133 
5 0 0 0 0 6 2 117 116 
6 0 0 0 0 7 1 115 
2 0 0 0 0 9 1 116 
3 0 0 0 0 8 2 119 118 
9 0 0 0 0 8 2 119 118 
4 0 0 0 0 9 1 121 
1 0 0 0 0 10 1 120 
4 0 0 0 0 9 1 122 
6 0 0 0 0 7 1 122 
0 0 0 0 0 0 1 123 
0 0 0 0 0 0 5 124 136 148 160 172 
0 0 0 0 0 0 2 125 127 
2 0 2 0 0 0 1 126 
6 0 8 0 0 0 4 132 130 129 128 
4 0 8 0 0 0 2 132 128 
5 0 7 0 0 0 2 133 131 
6 0 9 0 0 0 2 133 131 
8 0 4 0 0 0 2 134 133 
4 0 10 0 0 0 1 134 
3 0 10 0 0 0 1 133 
2 0 10 0 0 0 2 135 165 
9 0 7 0 0 0 1 135 
0 0 0 0 0 0 1 184 
0 0 0 0 0 0 5 137 139 142 143 146 
3 9 0 0 0 0 2 145 138 
6 2 0 0 0 0 1 140 
2 10 0 0 0 0 1 140 
2 10 0 0 0 0 1 141 
6 8 0 0 0 0 1 144 
10 10 0 0 0 0 2 145 169 
6 5 0 0 0 0 1 144 
1 7 0 0 0 0 1 147 
3 5 0 0 0 0 1 147 
9 9 0 0 0 0 1 147 
0 0 0 0 0 0 1 184 
0 0 0 0 0 0 3 149 152 155 
1 0 0 0 4 0 2 154 150 
1 0 0 0 4 0 2 158 151 
10 0 0 0 7 0 1 153 
8 0 0 0 5 0 1 153 
1 0 0 0 8 0 3 157 156 174 
2 0 0 0 10 0 2 157 156 
10 0 0 0 8 0 1 158 
5 0 0 0 10 0 1 159 
6 0 0 0 10 0 1 159 
4 0 0 0 9 0 1 159 
0 0 0 0 0 0 1 184 
0 0 0 0 0 0 2 161 163 
6 5 0 0 0 0 2 162 182 
5 5 0 0 0 0 4 168 166 165 164 
5 6 0 0 0 0 3 168 165 164 
6 9 0 0 0 0 1 167 
6 7 0 0 0 0 1 167 
3 7 0 0 0 0 1 167 
3 10 0 0 0 0 2 170 169 
6 10 0 0 0 0 1 169 
2 10 0 0 0 0 1 171 
10 6 0 0 0 0 1 171 
0 0 0 0 0 0 1 184 
0 0 0 0 0 0 4 173 175 181 182 
5 0 3 0 0 0 2 178 174 
5 0 6 0 0 0 2 180 176 
9 0 10 0 0 0 2 180 177 
6 0 7 0 0 0 1 177 
3 0 10 0 0 0 1 179 
5 0 9 0 0 0 1 180 
5 0 10 0 0 0 1 183 
5 0 6 0 0 0 1 183 
8 0 4 0 0 0 1 183 
2 0 10 0 0 0 1 183 
0 0 0 0 0 0 1 184 
0 0 0 0 0 0 0 
